\ Model sp150x300d
\ LP format - for model browsing. Use MPS format to capture full model detail.
Minimize
  y....001 + y....002 + y....003 + y....004 + y....005 + y....006 + y....007
   + y....008 + y....009 + y....010 + y....011 + y....012 + y....013
   + y....014 + y....015 + y....016 + y....017 + y....018 + y....019
   + y....020 + y....021 + y....022 + y....023 + y....024 + y....025
   + y....026 + y....027 + y....028 + y....029 + y....030 + y....031
   + y....032 + y....033 + y....034 + y....035 + y....036 + y....037
   + y....038 + y....039 + y....040 + y....041 + y....042 + y....043
   + y....044 + y....045 + y....046 + y....047 + y....048 + y....049
   + y....050 + y....051 + y....052 + y....053 + y....054 + y....055
   + y....056 + y....057 + y....058 + y....059 + y....060 + y....061
   + y....062 + y....063 + y....064 + y....065 + y....066 + y....067
   + y....068 + y....069 + y....070 + y....071 + y....072 + y....073
   + y....074 + y....075 + y....076 + y....077 + y....078 + y....079
   + y....080 + y....081 + y....082 + y....083 + y....084 + y....085
   + y....086 + y....087 + y....088 + y....089 + y....090 + y....091
   + y....092 + y....093 + y....094 + y....095 + y....096 + y....097
   + y....098 + y....099 + y....100 + y....101 + y....102 + y....103
   + y....104 + y....105 + y....106 + y....107 + y....108 + y....109
   + y....110 + y....111 + y....112 + y....113 + y....114 + y....115
   + y....116 + y....117 + y....118 + y....119 + y....120 + y....121
   + y....122 + y....123 + y....124 + y....125 + y....126 + y....127
   + y....128 + y....129 + y....130 + y....131 + y....132 + y....133
   + y....134 + y....135 + y....136 + y....137 + y....138 + y....139
   + y....140 + y....141 + y....142 + y....143 + y....144 + y....145
   + y....146 + y....147 + y....148 + y....149 + y....150 + y....151
   + y....152 + y....153 + y....154 + y....155 + y....156 + y....157
   + y....158 + y....159 + y....160 + y....161 + y....162 + y....163
   + y....164 + y....165 + y....166 + y....167 + y....168 + y....169
   + y....170 + y....171 + y....172 + y....173 + y....174 + y....175
   + y....176 + y....177 + y....178 + y....179 + y....180 + y....181
   + y....182 + y....183 + y....184 + y....185 + y....186 + y....187
   + y....188 + y....189 + y....190 + y....191 + y....192 + y....193
   + y....194 + y....195 + y....196 + y....197 + y....198 + y....199
   + y....200 + y....201 + y....202 + y....203 + y....204 + y....205
   + y....206 + y....207 + y....208 + y....209 + y....210 + y....211
   + y....212 + y....213 + y....214 + y....215 + y....216 + y....217
   + y....218 + y....219 + y....220 + y....221 + y....222 + y....223
   + y....224 + y....225 + y....226 + y....227 + y....228 + y....229
   + y....230 + y....231 + y....232 + y....233 + y....234 + y....235
   + y....236 + y....237 + y....238 + y....239 + y....240 + y....241
   + y....242 + y....243 + y....244 + y....245 + y....246 + y....247
   + y....248 + y....249 + y....250 + y....251 + y....252 + y....253
   + y....254 + y....255 + y....256 + y....257 + y....258 + y....259
   + y....260 + y....261 + y....262 + y....263 + y....264 + y....265
   + y....266 + y....267 + y....268 + y....269 + y....270 + y....271
   + y....272 + y....273 + y....274 + y....275 + y....276 + y....277
   + y....278 + y....279 + y....280 + y....281 + y....282 + y....283
   + y....284 + y....285 + y....286 + y....287 + y....288 + y....289
   + y....290 + y....291 + y....292 + y....293 + y....294 + y....295
   + y....296 + y....297 + y....298 + y....299 + y....300
Subject To
 CNS..001: x....186 + x....188 + x....215 + x....216 + x....217 + x....223
   + x....224 + x....226 + x....250 + x....251 + x....253 + x....256
   + x....258 + x....260 + x....261 + x....263 + x....298 + x....299
   + x....300 = 1914
 CNS..002: - x....001 - x....005 - x....007 - x....008 - x....039
   - x....040 - x....043 - x....044 - x....048 - x....049 - x....053
   - x....054 - x....076 - x....077 - x....078 - x....094 - x....095
   - x....100 - x....101 - x....103 - x....114 - x....115 - x....118
   - x....120 - x....121 = -1348
 CNS..003: x....025 + x....026 + x....028 + x....031 + x....033 + x....035
   + x....036 + x....038 + x....073 + x....074 + x....075 + x....090
   + x....091 + x....093 + x....110 + x....111 + x....113 + x....147
   + x....148 + x....150 - x....151 - x....155 - x....157 - x....161
   - x....162 - x....163 - x....189 - x....190 - x....194 - x....196
   - x....197 - x....199 - x....201 - x....202 - x....227 - x....228
   - x....230 - x....231 - x....232 - x....264 - x....265 - x....268
   - x....269 - x....273 - x....274 - x....278 - x....279 = 543
 CNS..004: x....017 + x....018 + x....019 - x....020 - x....022 - x....023
   - x....029 - x....034 - x....036 - x....037 = 138
 CNS..005: x....002 + x....004 + x....006 + x....007 + x....009 - x....010
   - x....012 = 42
 CNS..006: x....001 - x....002 - x....003 = 33
 CNS..007: x....003 - x....004 = 3
 CNS..008: x....005 - x....006 = -2
 CNS..009: x....008 - x....009 = 1
 CNS..010: x....013 + x....014 + x....015 - x....016 - x....018 - x....019
   = 0
 CNS..011: x....011 + x....012 - x....013 - x....014 - x....015 = 0
 CNS..012: x....010 - x....011 = 0
 CNS..013: x....016 - x....017 = 0
 CNS..014: x....021 + x....022 + x....024 - x....025 - x....026 - x....027
   = 2
 CNS..015: x....020 - x....021 = -50
 CNS..016: x....023 - x....024 = 0
 CNS..017: x....027 - x....028 = 1
 CNS..018: x....030 - x....031 - x....032 = 0
 CNS..019: x....029 - x....030 = 0
 CNS..020: x....032 - x....033 = 0
 CNS..021: x....034 - x....035 = -20
 CNS..022: x....037 - x....038 = 0
 CNS..023: x....042 + x....045 + x....047 + x....051 + x....052 + x....056
   - x....057 - x....058 - x....059 = 50
 CNS..024: x....039 + x....040 - x....041 = -6
 CNS..025: x....041 - x....042 = 0
 CNS..026: x....043 + x....044 - x....045 - x....046 = 0
 CNS..027: x....046 - x....047 = 0
 CNS..028: x....048 + x....049 - x....050 - x....052 = 0
 CNS..029: x....050 - x....051 = 0
 CNS..030: x....053 + x....054 - x....055 = -495
 CNS..031: x....055 - x....056 = 1
 CNS..032: x....062 + x....063 + x....065 - x....066 - x....068 - x....069
   = 0
 CNS..033: x....057 + x....058 + x....060 - x....061 - x....063 - x....064
   = 1
 CNS..034: x....059 - x....060 = 0
 CNS..035: x....061 - x....062 = 0
 CNS..036: x....064 - x....065 = 0
 CNS..037: x....067 + x....068 + x....069 - x....070 - x....072 = 0
 CNS..038: x....066 - x....067 = 0
 CNS..039: x....071 + x....072 - x....073 - x....074 - x....075 = 1
 CNS..040: x....070 - x....071 = -82
 CNS..041: x....083 + x....084 - x....085 - x....086 = 0
 CNS..042: x....076 + x....077 + x....079 - x....080 - x....081 = 0
 CNS..043: x....078 - x....079 = -1
 CNS..044: x....080 + x....081 - x....082 - x....084 = -1
 CNS..045: x....082 - x....083 = 0
 CNS..046: x....088 + x....089 - x....090 - x....091 - x....092 = 0
 CNS..047: x....085 + x....086 - x....087 - x....089 = 0
 CNS..048: x....087 - x....088 = 0
 CNS..049: x....092 - x....093 = 0
 CNS..050: x....098 + x....099 + x....100 + x....102 + x....104 - x....105
   - x....106 - x....108 = 0
 CNS..051: x....094 + x....096 - x....097 - x....099 = 0
 CNS..052: x....095 - x....096 = 0
 CNS..053: x....097 - x....098 = 0
 CNS..054: x....101 - x....102 = 0
 CNS..055: x....103 - x....104 = 0
 CNS..056: x....105 + x....107 + x....109 - x....110 - x....111 - x....112
   = 0
 CNS..057: x....106 - x....107 = 0
 CNS..058: x....108 - x....109 = -5
 CNS..059: x....112 - x....113 = 0
 CNS..060: x....130 + x....131 + x....132 - x....133 - x....134 - x....136
   - x....137 = 0
 CNS..061: x....117 + x....119 + x....120 + x....122 - x....123 - x....125
   - x....126 = 0
 CNS..062: x....114 + x....115 - x....116 = 0
 CNS..063: x....116 - x....117 = 0
 CNS..064: x....118 - x....119 = -1
 CNS..065: x....121 - x....122 = 0
 CNS..066: x....127 + x....128 - x....129 - x....131 - x....132 = 0
 CNS..067: x....124 + x....125 + x....126 - x....127 - x....128 = 0
 CNS..068: x....123 - x....124 = 0
 CNS..069: x....129 - x....130 = 0
 CNS..070: x....133 + x....135 + x....138 + x....140 - x....141 - x....142
   - x....143 - x....144 = 0
 CNS..071: x....134 - x....135 = 0
 CNS..072: x....136 + x....137 - x....138 - x....139 = 0
 CNS..073: x....139 - x....140 = 0
 CNS..074: x....141 + x....142 + x....143 + x....145 - x....146 - x....148
   - x....149 = 86
 CNS..075: x....144 - x....145 = -464
 CNS..076: x....146 - x....147 = 1
 CNS..077: x....149 - x....150 = 2
 CNS..078: x....152 + x....154 + x....158 + x....160 + x....165 + x....167
   + x....169 - x....170 - x....172 - x....175 = 44
 CNS..079: x....151 - x....152 - x....153 = 2
 CNS..080: x....153 - x....154 = -121
 CNS..081: x....156 + x....157 - x....158 - x....159 = 1
 CNS..082: x....155 - x....156 = 0
 CNS..083: x....159 - x....160 = 0
 CNS..084: x....161 + x....162 + x....164 - x....165 - x....166 - x....168
   = 0
 CNS..085: x....163 - x....164 = 0
 CNS..086: x....166 - x....167 = 0
 CNS..087: x....168 - x....169 = 0
 CNS..088: x....173 + x....174 + x....177 + x....178 - x....179 - x....180
   - x....181 = 11
 CNS..089: x....171 + x....172 - x....173 - x....174 = 0
 CNS..090: x....170 - x....171 = 0
 CNS..091: x....175 - x....176 - x....178 = 0
 CNS..092: x....176 - x....177 = 0
 CNS..093: x....179 + x....180 + x....182 - x....183 - x....184 - x....185
   = 0
 CNS..094: x....181 - x....182 = 0
 CNS..095: x....183 + x....184 + x....185 - x....186 - x....187 = 0
 CNS..096: x....187 - x....188 = 0
 CNS..097: x....191 + x....193 + x....195 + x....196 + x....198 + x....206
   + x....208 - x....209 - x....211 - x....212 - x....218 - x....219
   - x....220 = 1
 CNS..098: x....189 + x....190 - x....191 - x....192 = 0
 CNS..099: x....192 - x....193 = 0
 CNS..100: x....194 - x....195 = 0
 CNS..101: x....197 - x....198 = -8
 CNS..102: x....200 + x....201 + x....203 - x....204 - x....205 = 0
 CNS..103: x....199 - x....200 = 0
 CNS..104: x....202 - x....203 = 0
 CNS..105: x....204 + x....205 - x....206 - x....207 = 0
 CNS..106: x....207 - x....208 = 0
 CNS..107: x....210 + x....211 + x....213 - x....214 - x....216 - x....217
   = -22
 CNS..108: x....209 - x....210 = 1
 CNS..109: x....212 - x....213 = 0
 CNS..110: x....214 - x....215 = 1
 CNS..111: x....218 + x....219 + x....221 - x....222 - x....224 - x....225
   = 0
 CNS..112: x....220 - x....221 = 1
 CNS..113: x....222 - x....223 = 0
 CNS..114: x....225 - x....226 = 0
 CNS..115: x....242 + x....243 + x....244 - x....245 - x....247 - x....248
   - x....254 - x....259 - x....261 - x....262 = 85
 CNS..116: x....227 + x....229 + x....230 + x....234 - x....235 - x....237
   = 0
 CNS..117: x....228 - x....229 = 0
 CNS..118: x....231 + x....232 - x....233 = 0
 CNS..119: x....233 - x....234 = 0
 CNS..120: x....238 + x....239 + x....240 - x....241 - x....243 - x....244
   = -272
 CNS..121: x....236 + x....237 - x....238 - x....239 - x....240 = 0
 CNS..122: x....235 - x....236 = 0
 CNS..123: x....241 - x....242 = 25
 CNS..124: x....246 + x....247 + x....249 - x....250 - x....251 - x....252
   = 11
 CNS..125: x....245 - x....246 = 2
 CNS..126: x....248 - x....249 = 0
 CNS..127: x....252 - x....253 = 0
 CNS..128: x....255 - x....256 - x....257 = 0
 CNS..129: x....254 - x....255 = 0
 CNS..130: x....257 - x....258 = 0
 CNS..131: x....259 - x....260 = 0
 CNS..132: x....262 - x....263 = 0
 CNS..133: x....267 + x....270 + x....272 + x....276 + x....277 + x....281
   - x....282 - x....283 - x....284 = 33
 CNS..134: x....264 + x....265 - x....266 = 0
 CNS..135: x....266 - x....267 = 0
 CNS..136: x....268 + x....269 - x....270 - x....271 = -1
 CNS..137: x....271 - x....272 = 1
 CNS..138: x....273 + x....274 - x....275 - x....277 = 0
 CNS..139: x....275 - x....276 = 0
 CNS..140: x....278 + x....279 - x....280 = -150
 CNS..141: x....280 - x....281 = 7
 CNS..142: x....287 + x....288 + x....290 - x....291 - x....293 - x....294
   = 2
 CNS..143: x....282 + x....283 + x....285 - x....286 - x....288 - x....289
   = 2
 CNS..144: x....284 - x....285 = 0
 CNS..145: x....286 - x....287 = 0
 CNS..146: x....289 - x....290 = 0
 CNS..147: x....292 + x....293 + x....294 - x....295 - x....297 = 0
 CNS..148: x....291 - x....292 = 0
 CNS..149: x....296 + x....297 - x....298 - x....299 - x....300 = 0
 CNS..150: x....295 - x....296 = 0
 UC...001: x....001 - 3049 y....001 <= 0
 UC...002: x....002 - 3049 y....002 <= 0
 UC...003: x....003 - 3049 y....003 <= 0
 UC...004: x....004 - 3049 y....004 <= 0
 UC...005: x....005 - 3049 y....005 <= 0
 UC...006: x....006 - 3049 y....006 <= 0
 UC...007: x....007 - 3049 y....007 <= 0
 UC...008: x....008 - 3049 y....008 <= 0
 UC...009: x....009 - 3049 y....009 <= 0
 UC...010: x....010 - 3049 y....010 <= 0
 UC...011: x....011 - 3049 y....011 <= 0
 UC...012: x....012 - 3049 y....012 <= 0
 UC...013: x....013 - 3049 y....013 <= 0
 UC...014: x....014 - 3049 y....014 <= 0
 UC...015: x....015 - 3049 y....015 <= 0
 UC...016: x....016 - 3049 y....016 <= 0
 UC...017: x....017 - 3049 y....017 <= 0
 UC...018: x....018 - 3049 y....018 <= 0
 UC...019: x....019 - 3049 y....019 <= 0
 UC...020: x....020 - 3049 y....020 <= 0
 UC...021: x....021 - 3049 y....021 <= 0
 UC...022: x....022 - 3049 y....022 <= 0
 UC...023: x....023 - 3049 y....023 <= 0
 UC...024: x....024 - 3049 y....024 <= 0
 UC...025: x....025 - 3049 y....025 <= 0
 UC...026: x....026 - 3049 y....026 <= 0
 UC...027: x....027 - 3049 y....027 <= 0
 UC...028: x....028 - 3049 y....028 <= 0
 UC...029: x....029 - 3049 y....029 <= 0
 UC...030: x....030 - 3049 y....030 <= 0
 UC...031: x....031 - 3049 y....031 <= 0
 UC...032: x....032 - 3049 y....032 <= 0
 UC...033: x....033 - 3049 y....033 <= 0
 UC...034: x....034 - 3049 y....034 <= 0
 UC...035: x....035 - 3049 y....035 <= 0
 UC...036: x....036 - 3049 y....036 <= 0
 UC...037: x....037 - 3049 y....037 <= 0
 UC...038: x....038 - 3049 y....038 <= 0
 UC...039: x....039 - 3049 y....039 <= 0
 UC...040: x....040 - 3049 y....040 <= 0
 UC...041: x....041 - 3049 y....041 <= 0
 UC...042: x....042 - 3049 y....042 <= 0
 UC...043: x....043 - 3049 y....043 <= 0
 UC...044: x....044 - 3049 y....044 <= 0
 UC...045: x....045 - 3049 y....045 <= 0
 UC...046: x....046 - 3049 y....046 <= 0
 UC...047: x....047 - 3049 y....047 <= 0
 UC...048: x....048 - 3049 y....048 <= 0
 UC...049: x....049 - 3049 y....049 <= 0
 UC...050: x....050 - 3049 y....050 <= 0
 UC...051: x....051 - 3049 y....051 <= 0
 UC...052: x....052 - 3049 y....052 <= 0
 UC...053: x....053 - 3049 y....053 <= 0
 UC...054: x....054 - 3049 y....054 <= 0
 UC...055: x....055 - 3049 y....055 <= 0
 UC...056: x....056 - 3049 y....056 <= 0
 UC...057: x....057 - 3049 y....057 <= 0
 UC...058: x....058 - 3049 y....058 <= 0
 UC...059: x....059 - 3049 y....059 <= 0
 UC...060: x....060 - 3049 y....060 <= 0
 UC...061: x....061 - 3049 y....061 <= 0
 UC...062: x....062 - 3049 y....062 <= 0
 UC...063: x....063 - 3049 y....063 <= 0
 UC...064: x....064 - 3049 y....064 <= 0
 UC...065: x....065 - 3049 y....065 <= 0
 UC...066: x....066 - 3049 y....066 <= 0
 UC...067: x....067 - 3049 y....067 <= 0
 UC...068: x....068 - 3049 y....068 <= 0
 UC...069: x....069 - 3049 y....069 <= 0
 UC...070: x....070 - 3049 y....070 <= 0
 UC...071: x....071 - 3049 y....071 <= 0
 UC...072: x....072 - 3049 y....072 <= 0
 UC...073: x....073 - 3049 y....073 <= 0
 UC...074: x....074 - 3049 y....074 <= 0
 UC...075: x....075 - 3049 y....075 <= 0
 UC...076: x....076 - 3049 y....076 <= 0
 UC...077: x....077 - 3049 y....077 <= 0
 UC...078: x....078 - 3049 y....078 <= 0
 UC...079: x....079 - 3049 y....079 <= 0
 UC...080: x....080 - 3049 y....080 <= 0
 UC...081: x....081 - 3049 y....081 <= 0
 UC...082: x....082 - 3049 y....082 <= 0
 UC...083: x....083 - 3049 y....083 <= 0
 UC...084: x....084 - 3049 y....084 <= 0
 UC...085: x....085 - 3049 y....085 <= 0
 UC...086: x....086 - 3049 y....086 <= 0
 UC...087: x....087 - 3049 y....087 <= 0
 UC...088: x....088 - 3049 y....088 <= 0
 UC...089: x....089 - 3049 y....089 <= 0
 UC...090: x....090 - 3049 y....090 <= 0
 UC...091: x....091 - 3049 y....091 <= 0
 UC...092: x....092 - 3049 y....092 <= 0
 UC...093: x....093 - 3049 y....093 <= 0
 UC...094: x....094 - 3049 y....094 <= 0
 UC...095: x....095 - 3049 y....095 <= 0
 UC...096: x....096 - 3049 y....096 <= 0
 UC...097: x....097 - 3049 y....097 <= 0
 UC...098: x....098 - 3049 y....098 <= 0
 UC...099: x....099 - 3049 y....099 <= 0
 UC...100: x....100 - 3049 y....100 <= 0
 UC...101: x....101 - 3049 y....101 <= 0
 UC...102: x....102 - 3049 y....102 <= 0
 UC...103: x....103 - 3049 y....103 <= 0
 UC...104: x....104 - 3049 y....104 <= 0
 UC...105: x....105 - 3049 y....105 <= 0
 UC...106: x....106 - 3049 y....106 <= 0
 UC...107: x....107 - 3049 y....107 <= 0
 UC...108: x....108 - 3049 y....108 <= 0
 UC...109: x....109 - 3049 y....109 <= 0
 UC...110: x....110 - 3049 y....110 <= 0
 UC...111: x....111 - 3049 y....111 <= 0
 UC...112: x....112 - 3049 y....112 <= 0
 UC...113: x....113 - 3049 y....113 <= 0
 UC...114: x....114 - 3049 y....114 <= 0
 UC...115: x....115 - 3049 y....115 <= 0
 UC...116: x....116 - 3049 y....116 <= 0
 UC...117: x....117 - 3049 y....117 <= 0
 UC...118: x....118 - 3049 y....118 <= 0
 UC...119: x....119 - 3049 y....119 <= 0
 UC...120: x....120 - 3049 y....120 <= 0
 UC...121: x....121 - 3049 y....121 <= 0
 UC...122: x....122 - 3049 y....122 <= 0
 UC...123: x....123 - 3049 y....123 <= 0
 UC...124: x....124 - 3049 y....124 <= 0
 UC...125: x....125 - 3049 y....125 <= 0
 UC...126: x....126 - 3049 y....126 <= 0
 UC...127: x....127 - 3049 y....127 <= 0
 UC...128: x....128 - 3049 y....128 <= 0
 UC...129: x....129 - 3049 y....129 <= 0
 UC...130: x....130 - 3049 y....130 <= 0
 UC...131: x....131 - 3049 y....131 <= 0
 UC...132: x....132 - 3049 y....132 <= 0
 UC...133: x....133 - 3049 y....133 <= 0
 UC...134: x....134 - 3049 y....134 <= 0
 UC...135: x....135 - 3049 y....135 <= 0
 UC...136: x....136 - 3049 y....136 <= 0
 UC...137: x....137 - 3049 y....137 <= 0
 UC...138: x....138 - 3049 y....138 <= 0
 UC...139: x....139 - 3049 y....139 <= 0
 UC...140: x....140 - 3049 y....140 <= 0
 UC...141: x....141 - 3049 y....141 <= 0
 UC...142: x....142 - 3049 y....142 <= 0
 UC...143: x....143 - 3049 y....143 <= 0
 UC...144: x....144 - 3049 y....144 <= 0
 UC...145: x....145 - 3049 y....145 <= 0
 UC...146: x....146 - 3049 y....146 <= 0
 UC...147: x....147 - 3049 y....147 <= 0
 UC...148: x....148 - 3049 y....148 <= 0
 UC...149: x....149 - 3049 y....149 <= 0
 UC...150: x....150 - 3049 y....150 <= 0
 UC...151: x....151 - 3049 y....151 <= 0
 UC...152: x....152 - 3049 y....152 <= 0
 UC...153: x....153 - 3049 y....153 <= 0
 UC...154: x....154 - 3049 y....154 <= 0
 UC...155: x....155 - 3049 y....155 <= 0
 UC...156: x....156 - 3049 y....156 <= 0
 UC...157: x....157 - 3049 y....157 <= 0
 UC...158: x....158 - 3049 y....158 <= 0
 UC...159: x....159 - 3049 y....159 <= 0
 UC...160: x....160 - 3049 y....160 <= 0
 UC...161: x....161 - 3049 y....161 <= 0
 UC...162: x....162 - 3049 y....162 <= 0
 UC...163: x....163 - 3049 y....163 <= 0
 UC...164: x....164 - 3049 y....164 <= 0
 UC...165: x....165 - 3049 y....165 <= 0
 UC...166: x....166 - 3049 y....166 <= 0
 UC...167: x....167 - 3049 y....167 <= 0
 UC...168: x....168 - 3049 y....168 <= 0
 UC...169: x....169 - 3049 y....169 <= 0
 UC...170: x....170 - 3049 y....170 <= 0
 UC...171: x....171 - 3049 y....171 <= 0
 UC...172: x....172 - 3049 y....172 <= 0
 UC...173: x....173 - 3049 y....173 <= 0
 UC...174: x....174 - 3049 y....174 <= 0
 UC...175: x....175 - 3049 y....175 <= 0
 UC...176: x....176 - 3049 y....176 <= 0
 UC...177: x....177 - 3049 y....177 <= 0
 UC...178: x....178 - 3049 y....178 <= 0
 UC...179: x....179 - 3049 y....179 <= 0
 UC...180: x....180 - 3049 y....180 <= 0
 UC...181: x....181 - 3049 y....181 <= 0
 UC...182: x....182 - 3049 y....182 <= 0
 UC...183: x....183 - 3049 y....183 <= 0
 UC...184: x....184 - 3049 y....184 <= 0
 UC...185: x....185 - 3049 y....185 <= 0
 UC...186: x....186 - 3049 y....186 <= 0
 UC...187: x....187 - 3049 y....187 <= 0
 UC...188: x....188 - 3049 y....188 <= 0
 UC...189: x....189 - 3049 y....189 <= 0
 UC...190: x....190 - 3049 y....190 <= 0
 UC...191: x....191 - 3049 y....191 <= 0
 UC...192: x....192 - 3049 y....192 <= 0
 UC...193: x....193 - 3049 y....193 <= 0
 UC...194: x....194 - 3049 y....194 <= 0
 UC...195: x....195 - 3049 y....195 <= 0
 UC...196: x....196 - 3049 y....196 <= 0
 UC...197: x....197 - 3049 y....197 <= 0
 UC...198: x....198 - 3049 y....198 <= 0
 UC...199: x....199 - 3049 y....199 <= 0
 UC...200: x....200 - 3049 y....200 <= 0
 UC...201: x....201 - 3049 y....201 <= 0
 UC...202: x....202 - 3049 y....202 <= 0
 UC...203: x....203 - 3049 y....203 <= 0
 UC...204: x....204 - 3049 y....204 <= 0
 UC...205: x....205 - 3049 y....205 <= 0
 UC...206: x....206 - 3049 y....206 <= 0
 UC...207: x....207 - 3049 y....207 <= 0
 UC...208: x....208 - 3049 y....208 <= 0
 UC...209: x....209 - 3049 y....209 <= 0
 UC...210: x....210 - 3049 y....210 <= 0
 UC...211: x....211 - 3049 y....211 <= 0
 UC...212: x....212 - 3049 y....212 <= 0
 UC...213: x....213 - 3049 y....213 <= 0
 UC...214: x....214 - 3049 y....214 <= 0
 UC...215: x....215 - 3049 y....215 <= 0
 UC...216: x....216 - 3049 y....216 <= 0
 UC...217: x....217 - 3049 y....217 <= 0
 UC...218: x....218 - 3049 y....218 <= 0
 UC...219: x....219 - 3049 y....219 <= 0
 UC...220: x....220 - 3049 y....220 <= 0
 UC...221: x....221 - 3049 y....221 <= 0
 UC...222: x....222 - 3049 y....222 <= 0
 UC...223: x....223 - 3049 y....223 <= 0
 UC...224: x....224 - 3049 y....224 <= 0
 UC...225: x....225 - 3049 y....225 <= 0
 UC...226: x....226 - 3049 y....226 <= 0
 UC...227: x....227 - 3049 y....227 <= 0
 UC...228: x....228 - 3049 y....228 <= 0
 UC...229: x....229 - 3049 y....229 <= 0
 UC...230: x....230 - 3049 y....230 <= 0
 UC...231: x....231 - 3049 y....231 <= 0
 UC...232: x....232 - 3049 y....232 <= 0
 UC...233: x....233 - 3049 y....233 <= 0
 UC...234: x....234 - 3049 y....234 <= 0
 UC...235: x....235 - 3049 y....235 <= 0
 UC...236: x....236 - 3049 y....236 <= 0
 UC...237: x....237 - 3049 y....237 <= 0
 UC...238: x....238 - 3049 y....238 <= 0
 UC...239: x....239 - 3049 y....239 <= 0
 UC...240: x....240 - 3049 y....240 <= 0
 UC...241: x....241 - 3049 y....241 <= 0
 UC...242: x....242 - 3049 y....242 <= 0
 UC...243: x....243 - 3049 y....243 <= 0
 UC...244: x....244 - 3049 y....244 <= 0
 UC...245: x....245 - 3049 y....245 <= 0
 UC...246: x....246 - 3049 y....246 <= 0
 UC...247: x....247 - 3049 y....247 <= 0
 UC...248: x....248 - 3049 y....248 <= 0
 UC...249: x....249 - 3049 y....249 <= 0
 UC...250: x....250 - 3049 y....250 <= 0
 UC...251: x....251 - 3049 y....251 <= 0
 UC...252: x....252 - 3049 y....252 <= 0
 UC...253: x....253 - 3049 y....253 <= 0
 UC...254: x....254 - 3049 y....254 <= 0
 UC...255: x....255 - 3049 y....255 <= 0
 UC...256: x....256 - 3049 y....256 <= 0
 UC...257: x....257 - 3049 y....257 <= 0
 UC...258: x....258 - 3049 y....258 <= 0
 UC...259: x....259 - 3049 y....259 <= 0
 UC...260: x....260 - 3049 y....260 <= 0
 UC...261: x....261 - 3049 y....261 <= 0
 UC...262: x....262 - 3049 y....262 <= 0
 UC...263: x....263 - 3049 y....263 <= 0
 UC...264: x....264 - 3049 y....264 <= 0
 UC...265: x....265 - 3049 y....265 <= 0
 UC...266: x....266 - 3049 y....266 <= 0
 UC...267: x....267 - 3049 y....267 <= 0
 UC...268: x....268 - 3049 y....268 <= 0
 UC...269: x....269 - 3049 y....269 <= 0
 UC...270: x....270 - 3049 y....270 <= 0
 UC...271: x....271 - 3049 y....271 <= 0
 UC...272: x....272 - 3049 y....272 <= 0
 UC...273: x....273 - 3049 y....273 <= 0
 UC...274: x....274 - 3049 y....274 <= 0
 UC...275: x....275 - 3049 y....275 <= 0
 UC...276: x....276 - 3049 y....276 <= 0
 UC...277: x....277 - 3049 y....277 <= 0
 UC...278: x....278 - 3049 y....278 <= 0
 UC...279: x....279 - 3049 y....279 <= 0
 UC...280: x....280 - 3049 y....280 <= 0
 UC...281: x....281 - 3049 y....281 <= 0
 UC...282: x....282 - 3049 y....282 <= 0
 UC...283: x....283 - 3049 y....283 <= 0
 UC...284: x....284 - 3049 y....284 <= 0
 UC...285: x....285 - 3049 y....285 <= 0
 UC...286: x....286 - 3049 y....286 <= 0
 UC...287: x....287 - 3049 y....287 <= 0
 UC...288: x....288 - 3049 y....288 <= 0
 UC...289: x....289 - 3049 y....289 <= 0
 UC...290: x....290 - 3049 y....290 <= 0
 UC...291: x....291 - 3049 y....291 <= 0
 UC...292: x....292 - 3049 y....292 <= 0
 UC...293: x....293 - 3049 y....293 <= 0
 UC...294: x....294 - 3049 y....294 <= 0
 UC...295: x....295 - 3049 y....295 <= 0
 UC...296: x....296 - 3049 y....296 <= 0
 UC...297: x....297 - 3049 y....297 <= 0
 UC...298: x....298 - 3049 y....298 <= 0
 UC...299: x....299 - 3049 y....299 <= 0
 UC...300: x....300 - 3049 y....300 <= 0
Bounds
 x....001 <= 3049
 x....002 <= 3049
 x....003 <= 3049
 x....004 <= 3049
 x....005 <= 3049
 x....006 <= 3049
 x....007 <= 3049
 x....008 <= 3049
 x....009 <= 3049
 x....010 <= 3049
 x....011 <= 3049
 x....012 <= 3049
 x....013 <= 3049
 x....014 <= 3049
 x....015 <= 3049
 x....016 <= 3049
 x....017 <= 3049
 x....018 <= 3049
 x....019 <= 3049
 x....020 <= 3049
 x....021 <= 3049
 x....022 <= 3049
 x....023 <= 3049
 x....024 <= 3049
 x....025 <= 3049
 x....026 <= 3049
 x....027 <= 3049
 x....028 <= 3049
 x....029 <= 3049
 x....030 <= 3049
 x....031 <= 3049
 x....032 <= 3049
 x....033 <= 3049
 x....034 <= 3049
 x....035 <= 3049
 x....036 <= 3049
 x....037 <= 3049
 x....038 <= 3049
 x....039 <= 3049
 x....040 <= 3049
 x....041 <= 3049
 x....042 <= 3049
 x....043 <= 3049
 x....044 <= 3049
 x....045 <= 3049
 x....046 <= 3049
 x....047 <= 3049
 x....048 <= 3049
 x....049 <= 3049
 x....050 <= 3049
 x....051 <= 3049
 x....052 <= 3049
 x....053 <= 3049
 x....054 <= 3049
 x....055 <= 3049
 x....056 <= 3049
 x....057 <= 3049
 x....058 <= 3049
 x....059 <= 3049
 x....060 <= 3049
 x....061 <= 3049
 x....062 <= 3049
 x....063 <= 3049
 x....064 <= 3049
 x....065 <= 3049
 x....066 <= 3049
 x....067 <= 3049
 x....068 <= 3049
 x....069 <= 3049
 x....070 <= 3049
 x....071 <= 3049
 x....072 <= 3049
 x....073 <= 3049
 x....074 <= 3049
 x....075 <= 3049
 x....076 <= 3049
 x....077 <= 3049
 x....078 <= 3049
 x....079 <= 3049
 x....080 <= 3049
 x....081 <= 3049
 x....082 <= 3049
 x....083 <= 3049
 x....084 <= 3049
 x....085 <= 3049
 x....086 <= 3049
 x....087 <= 3049
 x....088 <= 3049
 x....089 <= 3049
 x....090 <= 3049
 x....091 <= 3049
 x....092 <= 3049
 x....093 <= 3049
 x....094 <= 3049
 x....095 <= 3049
 x....096 <= 3049
 x....097 <= 3049
 x....098 <= 3049
 x....099 <= 3049
 x....100 <= 3049
 x....101 <= 3049
 x....102 <= 3049
 x....103 <= 3049
 x....104 <= 3049
 x....105 <= 3049
 x....106 <= 3049
 x....107 <= 3049
 x....108 <= 3049
 x....109 <= 3049
 x....110 <= 3049
 x....111 <= 3049
 x....112 <= 3049
 x....113 <= 3049
 x....114 <= 3049
 x....115 <= 3049
 x....116 <= 3049
 x....117 <= 3049
 x....118 <= 3049
 x....119 <= 3049
 x....120 <= 3049
 x....121 <= 3049
 x....122 <= 3049
 x....123 <= 3049
 x....124 <= 3049
 x....125 <= 3049
 x....126 <= 3049
 x....127 <= 3049
 x....128 <= 3049
 x....129 <= 3049
 x....130 <= 3049
 x....131 <= 3049
 x....132 <= 3049
 x....133 <= 3049
 x....134 <= 3049
 x....135 <= 3049
 x....136 <= 3049
 x....137 <= 3049
 x....138 <= 3049
 x....139 <= 3049
 x....140 <= 3049
 x....141 <= 3049
 x....142 <= 3049
 x....143 <= 3049
 x....144 <= 3049
 x....145 <= 3049
 x....146 <= 3049
 x....147 <= 3049
 x....148 <= 3049
 x....149 <= 3049
 x....150 <= 3049
 x....151 <= 3049
 x....152 <= 3049
 x....153 <= 3049
 x....154 <= 3049
 x....155 <= 3049
 x....156 <= 3049
 x....157 <= 3049
 x....158 <= 3049
 x....159 <= 3049
 x....160 <= 3049
 x....161 <= 3049
 x....162 <= 3049
 x....163 <= 3049
 x....164 <= 3049
 x....165 <= 3049
 x....166 <= 3049
 x....167 <= 3049
 x....168 <= 3049
 x....169 <= 3049
 x....170 <= 3049
 x....171 <= 3049
 x....172 <= 3049
 x....173 <= 3049
 x....174 <= 3049
 x....175 <= 3049
 x....176 <= 3049
 x....177 <= 3049
 x....178 <= 3049
 x....179 <= 3049
 x....180 <= 3049
 x....181 <= 3049
 x....182 <= 3049
 x....183 <= 3049
 x....184 <= 3049
 x....185 <= 3049
 x....186 <= 3049
 x....187 <= 3049
 x....188 <= 3049
 x....189 <= 3049
 x....190 <= 3049
 x....191 <= 3049
 x....192 <= 3049
 x....193 <= 3049
 x....194 <= 3049
 x....195 <= 3049
 x....196 <= 3049
 x....197 <= 3049
 x....198 <= 3049
 x....199 <= 3049
 x....200 <= 3049
 x....201 <= 3049
 x....202 <= 3049
 x....203 <= 3049
 x....204 <= 3049
 x....205 <= 3049
 x....206 <= 3049
 x....207 <= 3049
 x....208 <= 3049
 x....209 <= 3049
 x....210 <= 3049
 x....211 <= 3049
 x....212 <= 3049
 x....213 <= 3049
 x....214 <= 3049
 x....215 <= 3049
 x....216 <= 3049
 x....217 <= 3049
 x....218 <= 3049
 x....219 <= 3049
 x....220 <= 3049
 x....221 <= 3049
 x....222 <= 3049
 x....223 <= 3049
 x....224 <= 3049
 x....225 <= 3049
 x....226 <= 3049
 x....227 <= 3049
 x....228 <= 3049
 x....229 <= 3049
 x....230 <= 3049
 x....231 <= 3049
 x....232 <= 3049
 x....233 <= 3049
 x....234 <= 3049
 x....235 <= 3049
 x....236 <= 3049
 x....237 <= 3049
 x....238 <= 3049
 x....239 <= 3049
 x....240 <= 3049
 x....241 <= 3049
 x....242 <= 3049
 x....243 <= 3049
 x....244 <= 3049
 x....245 <= 3049
 x....246 <= 3049
 x....247 <= 3049
 x....248 <= 3049
 x....249 <= 3049
 x....250 <= 3049
 x....251 <= 3049
 x....252 <= 3049
 x....253 <= 3049
 x....254 <= 3049
 x....255 <= 3049
 x....256 <= 3049
 x....257 <= 3049
 x....258 <= 3049
 x....259 <= 3049
 x....260 <= 3049
 x....261 <= 3049
 x....262 <= 3049
 x....263 <= 3049
 x....264 <= 3049
 x....265 <= 3049
 x....266 <= 3049
 x....267 <= 3049
 x....268 <= 3049
 x....269 <= 3049
 x....270 <= 3049
 x....271 <= 3049
 x....272 <= 3049
 x....273 <= 3049
 x....274 <= 3049
 x....275 <= 3049
 x....276 <= 3049
 x....277 <= 3049
 x....278 <= 3049
 x....279 <= 3049
 x....280 <= 3049
 x....281 <= 3049
 x....282 <= 3049
 x....283 <= 3049
 x....284 <= 3049
 x....285 <= 3049
 x....286 <= 3049
 x....287 <= 3049
 x....288 <= 3049
 x....289 <= 3049
 x....290 <= 3049
 x....291 <= 3049
 x....292 <= 3049
 x....293 <= 3049
 x....294 <= 3049
 x....295 <= 3049
 x....296 <= 3049
 x....297 <= 3049
 x....298 <= 3049
 x....299 <= 3049
 x....300 <= 3049
Binaries
 y....001 y....002 y....003 y....004 y....005 y....006 y....007 y....008
 y....009 y....010 y....011 y....012 y....013 y....014 y....015 y....016
 y....017 y....018 y....019 y....020 y....021 y....022 y....023 y....024
 y....025 y....026 y....027 y....028 y....029 y....030 y....031 y....032
 y....033 y....034 y....035 y....036 y....037 y....038 y....039 y....040
 y....041 y....042 y....043 y....044 y....045 y....046 y....047 y....048
 y....049 y....050 y....051 y....052 y....053 y....054 y....055 y....056
 y....057 y....058 y....059 y....060 y....061 y....062 y....063 y....064
 y....065 y....066 y....067 y....068 y....069 y....070 y....071 y....072
 y....073 y....074 y....075 y....076 y....077 y....078 y....079 y....080
 y....081 y....082 y....083 y....084 y....085 y....086 y....087 y....088
 y....089 y....090 y....091 y....092 y....093 y....094 y....095 y....096
 y....097 y....098 y....099 y....100 y....101 y....102 y....103 y....104
 y....105 y....106 y....107 y....108 y....109 y....110 y....111 y....112
 y....113 y....114 y....115 y....116 y....117 y....118 y....119 y....120
 y....121 y....122 y....123 y....124 y....125 y....126 y....127 y....128
 y....129 y....130 y....131 y....132 y....133 y....134 y....135 y....136
 y....137 y....138 y....139 y....140 y....141 y....142 y....143 y....144
 y....145 y....146 y....147 y....148 y....149 y....150 y....151 y....152
 y....153 y....154 y....155 y....156 y....157 y....158 y....159 y....160
 y....161 y....162 y....163 y....164 y....165 y....166 y....167 y....168
 y....169 y....170 y....171 y....172 y....173 y....174 y....175 y....176
 y....177 y....178 y....179 y....180 y....181 y....182 y....183 y....184
 y....185 y....186 y....187 y....188 y....189 y....190 y....191 y....192
 y....193 y....194 y....195 y....196 y....197 y....198 y....199 y....200
 y....201 y....202 y....203 y....204 y....205 y....206 y....207 y....208
 y....209 y....210 y....211 y....212 y....213 y....214 y....215 y....216
 y....217 y....218 y....219 y....220 y....221 y....222 y....223 y....224
 y....225 y....226 y....227 y....228 y....229 y....230 y....231 y....232
 y....233 y....234 y....235 y....236 y....237 y....238 y....239 y....240
 y....241 y....242 y....243 y....244 y....245 y....246 y....247 y....248
 y....249 y....250 y....251 y....252 y....253 y....254 y....255 y....256
 y....257 y....258 y....259 y....260 y....261 y....262 y....263 y....264
 y....265 y....266 y....267 y....268 y....269 y....270 y....271 y....272
 y....273 y....274 y....275 y....276 y....277 y....278 y....279 y....280
 y....281 y....282 y....283 y....284 y....285 y....286 y....287 y....288
 y....289 y....290 y....291 y....292 y....293 y....294 y....295 y....296
 y....297 y....298 y....299 y....300
End
